1457261
33,57,18,10,44,14,52,22,31,28,50,36,59,16,2,48,63,21,3,61,24,42,56,60,29,25,30,41,64,67,38,7,43,46,34,55,26,66,11,6,23,49,19,5,40,32,12,1,54,13,47,4,20,65,45,27,17,9,58,15,8,68,53,37,35,51,39,62